
Gurobi 9.5.0 (linux64) logging started Fri Dec 15 10:44:09 2023

Set parameter LogFile to value "/lustre1/scratch/348/vsc34888/JointResearch/05.Models/06.Benchmarking/K.Investments_per_hour/RTS24_mod1_ByStages_nc90/openStarNet_RTS24_mod1_ByStages_nc90.log"
Set parameter Method to value 2
Set parameter MIPFocus to value 1
Set parameter Presolve to value 2
Set parameter RINS to value 100
Set parameter MIPGap to value 0.01
Set parameter Threads to value 36
Set parameter TimeLimit to value 259200
Set parameter IterationLimit to value 760000000
Gurobi Optimizer version 9.5.0 build v9.5.0rc5 (linux64)
Thread count: 36 physical cores, 36 logical processors, using up to 36 threads
Optimize a model with 32308 rows, 21775 columns and 87945 nonzeros
Model fingerprint: 0x785f36bb
Variable types: 21754 continuous, 21 integer (21 binary)
Coefficient statistics:
  Matrix range     [1e-03, 2e+03]
  Objective range  [1e+00, 1e+00]
  Bounds range     [4e-05, 2e+00]
  RHS range        [4e-05, 2e+00]
Presolve removed 19224 rows and 11008 columns
Presolve time: 0.12s
Presolved: 13084 rows, 10767 columns, 47214 nonzeros
Variable types: 10746 continuous, 21 integer (21 binary)
Found heuristic solution: objective 100.7175667
Root relaxation presolved: 13084 rows, 10767 columns, 47214 nonzeros

Root barrier log...

Ordering time: 0.00s

Barrier statistics:
 Dense cols : 21
 AA' NZ     : 8.768e+04
 Factor NZ  : 2.513e+05 (roughly 12 MB of memory)
 Factor Ops : 5.150e+06 (less than 1 second per iteration)
 Threads    : 36

                  Objective                Residual
Iter       Primal          Dual         Primal    Dual     Compl     Time
   0   6.34026500e+05 -4.23327974e+08  5.23e+00 6.05e+02  3.88e+04     0s
   1   8.73082048e+04 -1.08336229e+08  6.62e-01 1.10e-08  5.30e+03     0s
   2   3.00927547e+04 -1.65933705e+07  1.40e-01 1.34e-08  6.79e+02     0s
   3   1.59518729e+04 -1.29879106e+06  5.66e-03 3.75e-10  4.40e+01     0s
   4   1.05750702e+04 -1.41098985e+05  5.83e-13 2.34e-10  4.98e+00     0s
   5   4.53318913e+03 -3.77391558e+04  3.31e-13 6.09e-11  1.39e+00     0s
   6   1.25472620e+03 -1.08843282e+04  3.04e-13 1.73e-11  3.98e-01     0s
   7   3.78254299e+02 -2.71525191e+03  1.91e-13 3.64e-12  1.01e-01     0s
   8   2.18217135e+02 -6.95700211e+02  2.10e-13 3.64e-12  3.00e-02     0s
   9   1.54282663e+02 -2.53919880e+02  1.16e-13 1.82e-12  1.34e-02     0s
  10   1.02688070e+02 -6.93943380e+01  6.58e-14 7.28e-12  5.65e-03     0s
  11   7.27451603e+01  1.61778230e+01  4.53e-13 1.82e-12  1.86e-03     0s
  12   6.56096567e+01  3.17170137e+01  4.07e-13 3.64e-12  1.11e-03     0s
  13   5.96858360e+01  3.93280255e+01  3.83e-13 1.82e-12  6.68e-04     0s
  14   5.55424829e+01  4.21754647e+01  2.09e-12 3.64e-12  4.39e-04     0s
  15   5.39251281e+01  4.49909416e+01  9.83e-12 3.64e-12  2.93e-04     0s
  16   5.28492541e+01  4.61472135e+01  9.17e-12 3.64e-12  2.20e-04     0s
  17   5.18105993e+01  4.68829176e+01  5.62e-12 1.82e-12  1.62e-04     0s
  18   5.09717814e+01  4.79757015e+01  6.43e-12 1.82e-12  9.83e-05     0s
  19   5.04315105e+01  4.84831939e+01  1.09e-11 1.82e-12  6.39e-05     0s
  20   5.03277804e+01  4.89593407e+01  9.83e-12 3.64e-12  4.49e-05     0s
  21   5.01974871e+01  4.94845952e+01  1.35e-11 1.82e-12  2.34e-05     0s
  22   5.00493455e+01  4.96798127e+01  2.45e-11 1.82e-12  1.21e-05     0s
  23   5.00052926e+01  4.97147886e+01  1.06e-11 1.82e-12  9.53e-06     0s
  24   4.99304584e+01  4.97859817e+01  3.19e-11 7.28e-12  4.74e-06     0s
  25   4.99078336e+01  4.98933898e+01  3.02e-11 3.64e-12  4.74e-07     0s
  26   4.99044931e+01  4.99019083e+01  7.68e-11 7.28e-12  8.48e-08     0s
  27   4.99039617e+01  4.99033833e+01  1.25e-10 7.28e-12  1.90e-08     0s
  28   4.99038604e+01  4.99036560e+01  2.65e-10 3.64e-12  6.71e-09     0s
  29   4.99038362e+01  4.99037737e+01  9.57e-10 1.82e-12  2.05e-09     0s
  30   4.99038309e+01  4.99038249e+01  6.67e-10 1.82e-12  1.97e-10     1s
  31   4.99038306e+01  4.99038301e+01  1.87e-10 1.82e-12  1.73e-11     1s
  32   4.99038306e+01  4.99038306e+01  3.20e-10 7.28e-12  1.76e-14     1s

Barrier solved model in 32 iterations and 0.52 seconds (0.43 work units)
Optimal objective 4.99038306e+01


Root relaxation: objective 4.990383e+01, 1819 iterations, 0.35 seconds (0.26 work units)

    Nodes    |    Current Node    |     Objective Bounds      |     Work
 Expl Unexpl |  Obj  Depth IntInf | Incumbent    BestBd   Gap | It/Node Time

     0     0   49.90383    0   17  100.71757   49.90383  50.5%     -    0s
     0     0   51.34514    0   14  100.71757   51.34514  49.0%     -    1s
H    0     0                      95.6146702   51.34514  46.3%     -    1s
H    0     0                      86.5633974   51.37245  40.7%     -    1s
     0     0   51.37245    0   13   86.56340   51.37245  40.7%     -    1s
     0     0   51.37375    0   14   86.56340   51.37375  40.7%     -    1s
     0     0   51.60189    0   11   86.56340   51.60189  40.4%     -    2s
     0     0   51.63998    0   10   86.56340   51.63998  40.3%     -    2s
     0     0   51.64033    0   11   86.56340   51.64033  40.3%     -    2s
     0     0   51.72257    0   11   86.56340   51.72257  40.2%     -    2s
     0     0   51.96057    0   11   86.56340   51.96057  40.0%     -    2s
     0     0   51.96057    0   11   86.56340   51.96057  40.0%     -    2s
     0     0   52.54361    0   13   86.56340   52.54361  39.3%     -    3s
     0     0   52.54406    0   13   86.56340   52.54406  39.3%     -    3s
     0     0   52.54406    0   12   86.56340   52.54406  39.3%     -    3s
H    0     0                      81.0108246   52.54406  35.1%     -    4s
H    0     0                      69.5868476   52.54406  24.5%     -   15s
     0     2   52.54406    0   12   69.58685   52.54406  24.5%     -   16s
    99   124   57.65092    7   13   69.58685   55.19190  20.7%   595   21s
H  103   124                      69.3935200   55.19190  20.5%   593   21s
   252   185   69.32953    9   12   69.39352   55.19190  20.5%   504   26s
   299   204   65.96392   10   11   69.39352   55.19190  20.5%   490   52s
   694   272   69.24757   17    3   69.39352   55.19190  20.5%   427   55s
  1169   299   61.82425    7   14   69.39352   58.06040  16.3%   388   61s
  1896   239   64.05403    9   12   69.39352   58.42384  15.8%   355   71s
  2589   108   63.54944    9   12   69.39352   61.82949  10.9%   329   85s

Cutting planes:
  Gomory: 3
  Implied bound: 19
  MIR: 363
  Relax-and-lift: 33

Explored 3102 nodes (963592 simplex iterations) in 87.36 seconds (110.12 work units)
Thread count was 36 (of 36 available processors)

Solution count 6: 69.3935 69.5868 81.0108 ... 100.718

Optimal solution found (tolerance 1.00e-02)
Best objective 6.939351996709e+01, best bound 6.939351996709e+01, gap 0.0000%

Gurobi 9.5.0 (linux64) logging started Fri Dec 15 10:45:41 2023

Set parameter LogFile to value "/lustre1/scratch/348/vsc34888/JointResearch/05.Models/06.Benchmarking/K.Investments_per_hour/RTS24_mod1_ByStages_nc90/openStarNet_RTS24_mod1_ByStages_nc90.log"
Set parameter Method to value 2
Set parameter MIPFocus to value 1
Set parameter Presolve to value 2
Set parameter RINS to value 100
Set parameter MIPGap to value 0.01
Set parameter Threads to value 36
Set parameter TimeLimit to value 259200
Set parameter IterationLimit to value 760000000
No parameters matching 'relax_integrality' found
Gurobi Optimizer version 9.5.0 build v9.5.0rc5 (linux64)
Thread count: 36 physical cores, 36 logical processors, using up to 36 threads
Optimize a model with 32308 rows, 21754 columns and 80280 nonzeros
Model fingerprint: 0xf255011f
Coefficient statistics:
  Matrix range     [1e-03, 2e+03]
  Objective range  [1e+00, 1e+00]
  Bounds range     [4e-05, 2e+00]
  RHS range        [4e-05, 2e+01]
Presolve removed 27165 rows and 12461 columns
Presolve time: 0.04s
Presolved: 5143 rows, 9475 columns, 23071 nonzeros

Ordering time: 0.00s

Barrier statistics:
 AA' NZ     : 1.240e+04
 Factor NZ  : 4.448e+04 (roughly 5 MB of memory)
 Factor Ops : 5.800e+05 (less than 1 second per iteration)
 Threads    : 1

                  Objective                Residual
Iter       Primal          Dual         Primal    Dual     Compl     Time
   0   1.62586800e+06 -1.16672376e+08  9.08e+00 1.64e+03  7.44e+04     0s
   1   1.10065715e+05 -8.13342364e+07  5.84e-01 5.68e-11  8.63e+03     0s
   2   4.53969759e+04 -2.88016254e+07  1.81e-01 8.24e-11  2.39e+03     0s
   3   2.06979021e+04 -5.33801418e+06  7.12e-03 5.16e-11  3.42e+02     0s
   4   1.68005466e+04 -2.41357687e+05  1.10e-04 5.27e-11  1.60e+01     0s
   5   8.10708660e+03 -6.56639328e+04  8.00e-08 5.04e-11  4.58e+00     0s
   6   2.87959036e+03 -1.43890116e+04  9.77e-09 2.13e-11  1.07e+00     0s
   7   5.74744742e+02 -2.16680864e+03  2.52e-10 7.28e-12  1.70e-01     0s
   8   2.19737722e+02 -5.21384676e+02  5.59e-12 7.28e-12  4.60e-02     0s
   9   1.46678060e+02 -1.78576753e+02  2.33e-12 7.28e-12  2.02e-02     0s
  10   1.08998143e+02 -2.57177933e+01  1.05e-12 7.28e-12  8.36e-03     0s
  11   8.73950128e+01  2.69758868e+01  4.18e-13 1.82e-12  3.75e-03     0s
  12   7.88941357e+01  5.22672898e+01  2.13e-13 7.28e-12  1.65e-03     0s
  13   7.21852417e+01  6.31969332e+01  3.68e-13 7.28e-12  5.58e-04     0s
  14   7.02358547e+01  6.83635272e+01  4.72e-13 7.28e-12  1.16e-04     0s
  15   6.96370053e+01  6.90695311e+01  4.30e-12 1.82e-12  3.52e-05     0s
  16   6.94812091e+01  6.92789012e+01  1.44e-12 1.82e-12  1.26e-05     0s
  17   6.94241382e+01  6.93691926e+01  8.68e-13 7.28e-12  3.41e-06     0s
  18   6.94001844e+01  6.93877008e+01  1.39e-12 7.28e-12  7.75e-07     0s
  19   6.93942294e+01  6.93929513e+01  4.77e-12 7.28e-12  7.93e-08     0s
  20   6.93935237e+01  6.93935131e+01  4.82e-11 1.46e-11  6.58e-10     0s
  21   6.93935200e+01  6.93935200e+01  8.21e-12 7.28e-12  6.58e-13     0s
  22   6.93935200e+01  6.93935200e+01  3.53e-13 7.28e-12  2.23e-16     0s

Barrier solved model in 22 iterations and 0.12 seconds (0.11 work units)
Optimal objective 6.93935200e+01

Crossover log...

    1070 DPushes remaining with DInf 0.0000000e+00                 0s
       0 DPushes remaining with DInf 0.0000000e+00                 0s

     247 PPushes remaining with PInf 0.0000000e+00                 0s
       0 PPushes remaining with PInf 0.0000000e+00                 0s

  Push phase complete: Pinf 0.0000000e+00, Dinf 4.6140214e-13      0s

Iteration    Objective       Primal Inf.    Dual Inf.      Time
     254    6.9393520e+01   0.000000e+00   0.000000e+00      0s

Use crossover to convert LP symmetric solution to basic solution...
Crossover log...

       0 DPushes remaining with DInf 0.0000000e+00                 0s

     130 PPushes remaining with PInf 0.0000000e+00                 0s
       0 PPushes remaining with PInf 0.0000000e+00                 0s

  Push phase complete: Pinf 0.0000000e+00, Dinf 4.1428863e-13      0s

Iteration    Objective       Primal Inf.    Dual Inf.      Time
     391    6.9393520e+01   0.000000e+00   0.000000e+00      0s

Solved in 391 iterations and 0.17 seconds (0.13 work units)
Optimal objective  6.939351997e+01

Gurobi 10.0.0 (win64) logging started Sat Dec 16 15:40:58 2023

Set parameter LogFile to value "C:\Users\ealvarezq\Documents\GitHub\Comillas\Models\JointResearch\05. Models\06.Benchmarking\L.Cont_Investments_per_hour\RTS24_mod1_ByStages_nc90/openStarNet_RTS24_mod1_ByStages_nc90.log"
Set parameter Method to value 2
Set parameter MIPFocus to value 1
Set parameter Presolve to value 2
Set parameter RINS to value 100
Set parameter MIPGap to value 0.01
Set parameter Threads to value 9
Set parameter TimeLimit to value 259200
Set parameter IterationLimit to value 760000000
Gurobi Optimizer version 10.0.0 build v10.0.0rc2 (win64)

CPU model: Intel(R) Core(TM) i7-8700 CPU @ 3.20GHz, instruction set [SSE2|AVX|AVX2]
Thread count: 6 physical cores, 12 logical processors, using up to 9 threads

Optimize a model with 31954 rows, 21528 columns and 86949 nonzeros
Model fingerprint: 0x619dca29
Variable types: 21507 continuous, 21 integer (21 binary)
Coefficient statistics:
  Matrix range     [1e-03, 1e+03]
  Objective range  [1e+00, 1e+00]
  Bounds range     [3e-05, 3e+00]
  RHS range        [3e-05, 3e+00]
Presolve removed 19019 rows and 10887 columns
Presolve time: 0.12s
Presolved: 12935 rows, 10641 columns, 46673 nonzeros
Variable types: 10620 continuous, 21 integer (21 binary)
Found heuristic solution: objective 96.3912509
Root relaxation presolve removed 1 rows and 1 columns
Root relaxation presolved: 12934 rows, 10640 columns, 46671 nonzeros

Root barrier log...

Ordering time: 0.00s

Barrier statistics:
 Dense cols : 21
 AA' NZ     : 8.671e+04
 Factor NZ  : 2.487e+05 (roughly 12 MB of memory)
 Factor Ops : 5.103e+06 (less than 1 second per iteration)
 Threads    : 9

                  Objective                Residual
Iter       Primal          Dual         Primal    Dual     Compl     Time
   0   2.67430167e+06 -2.46157370e+08  2.17e+01 7.87e+02  6.54e+04     0s
   1   8.95106780e+05 -1.29453623e+08  7.18e+00 1.08e-08  1.96e+04     0s
   2   6.41402502e+04 -1.04805511e+08  4.97e-01 1.29e-08  4.44e+03     0s
   3   2.34384406e+04 -1.13973419e+07  1.05e-01 5.34e-09  4.41e+02     0s
   4   1.43903715e+04 -8.48062789e+05  4.41e-03 8.43e-11  2.91e+01     0s
   5   8.57986137e+03 -1.47309290e+05  3.67e-13 3.64e-11  5.17e+00     0s
   6   3.36453925e+03 -3.67513548e+04  5.38e-13 9.09e-12  1.33e+00     0s
   7   1.16879016e+03 -7.74072918e+03  2.40e-13 2.36e-12  2.96e-01     0s
   8   2.96305335e+02 -1.34967296e+03  1.47e-13 3.76e-12  5.46e-02     0s
   9   1.70034267e+02 -3.31396690e+02  1.10e-13 3.01e-12  1.66e-02     0s
  10   1.05969658e+02 -9.56179507e+01  9.33e-14 9.96e-13  6.69e-03     0s
  11   7.67083501e+01 -1.41272652e+01  1.09e-13 2.00e-12  3.01e-03     0s
  12   6.35483597e+01  1.95368510e+01  2.30e-13 2.49e-12  1.46e-03     0s
  13   5.52683375e+01  3.12252610e+01  2.68e-13 4.99e-12  7.98e-04     0s
  14   5.20471644e+01  4.10485725e+01  3.01e-13 3.78e-12  3.65e-04     0s
  15   4.99534062e+01  4.27011319e+01  5.09e-12 1.69e-12  2.41e-04     0s
  16   4.91060580e+01  4.40614368e+01  3.87e-12 1.55e-12  1.67e-04     0s
  17   4.82557757e+01  4.57169470e+01  2.43e-12 2.70e-12  8.43e-05     0s
  18   4.78660017e+01  4.66647634e+01  6.28e-12 2.36e-12  3.99e-05     0s
  19   4.76992760e+01  4.69725915e+01  6.72e-12 2.09e-12  2.41e-05     0s
  20   4.76298285e+01  4.71481899e+01  3.11e-12 3.19e-12  1.60e-05     0s
  21   4.75709298e+01  4.72808270e+01  1.46e-11 1.51e-12  9.63e-06     0s
  22   4.75450467e+01  4.74032909e+01  9.50e-12 3.07e-12  4.70e-06     0s
  23   4.75172584e+01  4.74655109e+01  2.11e-11 4.74e-12  1.72e-06     0s
  24   4.74990187e+01  4.74847723e+01  6.81e-11 1.60e-12  4.73e-07     0s
  25   4.74928612e+01  4.74900515e+01  2.29e-10 3.94e-12  9.32e-08     0s
  26   4.74915714e+01  4.74909440e+01  6.06e-11 4.08e-12  2.08e-08     0s
  27   4.74912648e+01  4.74911899e+01  2.77e-11 2.26e-12  2.49e-09     0s
  28   4.74912447e+01  4.74912384e+01  1.35e-09 1.40e-12  2.09e-10     0s
  29   4.74912441e+01  4.74912441e+01  1.71e-10 5.23e-12  1.02e-14     0s

Barrier solved model in 29 iterations and 0.45 seconds (0.43 work units)
Optimal objective 4.74912441e+01


Root relaxation: objective 4.749124e+01, 1600 iterations, 0.30 seconds (0.27 work units)

    Nodes    |    Current Node    |     Objective Bounds      |     Work
 Expl Unexpl |  Obj  Depth IntInf | Incumbent    BestBd   Gap | It/Node Time

     0     0   47.49124    0   17   96.39125   47.49124  50.7%     -    0s
     0     0   48.34378    0   12   96.39125   48.34378  49.8%     -    1s
H    0     0                      92.6624669   48.34378  47.8%     -    1s
H    0     0                      86.0821808   48.39190  43.8%     -    1s
     0     0   48.39190    0   13   86.08218   48.39190  43.8%     -    1s
H    0     0                      82.1330867   48.71704  40.7%     -    1s
     0     0   48.71704    0   15   82.13309   48.71704  40.7%     -    1s
     0     0   48.73346    0   12   82.13309   48.73346  40.7%     -    2s
     0     0   48.73690    0   15   82.13309   48.73690  40.7%     -    2s
     0     0   48.73699    0   15   82.13309   48.73699  40.7%     -    2s
     0     0   48.90366    0   17   82.13309   48.90366  40.5%     -    2s
H    0     0                      79.3001071   48.92352  38.3%     -    2s
     0     0   48.92352    0   13   79.30011   48.92352  38.3%     -    2s
     0     0   48.92553    0   14   79.30011   48.92553  38.3%     -    2s
     0     0   48.92641    0   14   79.30011   48.92641  38.3%     -    2s
     0     0   48.92653    0   14   79.30011   48.92653  38.3%     -    2s
     0     0   49.02269    0   11   79.30011   49.02269  38.2%     -    3s
     0     0   49.05628    0   11   79.30011   49.05628  38.1%     -    3s
     0     0   49.71677    0   14   79.30011   49.71677  37.3%     -    3s
     0     0   49.71677    0   14   79.30011   49.71677  37.3%     -    3s
     0     0   49.71677    0   14   79.30011   49.71677  37.3%     -    3s
     0     0   49.71723    0   14   79.30011   49.71723  37.3%     -    4s
H    0     0                      66.1733222   49.71723  24.9%     -   24s
     0     2   49.71723    0   14   66.17332   49.71723  24.9%     -   24s
     1     4   49.71723    1   13   66.17332   49.71723  24.9%   503   25s
    81    80   57.60217    9   12   66.17332   50.50971  23.7%   745   30s
H   93    87                      66.0384540   50.50971  23.5%   720   33s
   153   119     cutoff   12        66.03845   51.68679  21.7%   657   35s
   333   135   53.90854    7   13   66.03845   52.89930  19.9%   585   40s
   497   176   56.91905    6   12   66.03845   53.93469  18.3%   533   65s
   596   194   62.63181   11   10   66.03845   53.93469  18.3%   503   85s
H  633   194                      65.9065661   53.93469  18.2%   494   85s
   699   216     cutoff   15        65.90657   56.89428  13.7%   482  118s
   809   215     cutoff   12        65.90657   57.35927  13.0%   467  120s
   896   227   64.37486   12    9   65.90657   57.35927  13.0%   463  145s
  1086   254   65.45124   12    9   65.90657   59.21250  10.2%   433  152s
  1338   271     cutoff   17        65.90657   60.30118  8.51%   408  155s
  1751   335     cutoff   14        65.90657   61.27201  7.03%   379  163s
  1829   325   62.90074    8    9   65.90657   61.46132  6.74%   373  165s
  1995   312   65.28252   16    5   65.90657   61.78689  6.25%   364  173s
  2131   289   65.41732   15    6   65.90657   62.20388  5.62%   356  176s
  2553   221     cutoff   12        65.90657   62.88289  4.59%   335  180s
  2798   117   65.58568   15    6   65.90657   63.30852  3.94%   324  189s
  3006     9   65.24353   12    8   65.90657   63.54662  3.58%   313  190s

Cutting planes:
  Learned: 2
  Implied bound: 115
  MIR: 593
  Relax-and-lift: 44

Explored 3221 nodes (974167 simplex iterations) in 193.70 seconds (319.29 work units)
Thread count was 9 (of 12 available processors)

Solution count 8: 65.9066 66.0385 66.1733 ... 96.3913

Optimal solution found (tolerance 1.00e-02)
Best objective 6.590656607060e+01, best bound 6.590656607060e+01, gap 0.0000%

Gurobi 10.0.0 (win64) logging started Sat Dec 16 15:44:13 2023

Set parameter LogFile to value "C:\Users\ealvarezq\Documents\GitHub\Comillas\Models\JointResearch\05. Models\06.Benchmarking\L.Cont_Investments_per_hour\RTS24_mod1_ByStages_nc90/openStarNet_RTS24_mod1_ByStages_nc90.log"
Set parameter Method to value 2
Set parameter MIPFocus to value 1
Set parameter Presolve to value 2
Set parameter RINS to value 100
Set parameter MIPGap to value 0.01
Set parameter Threads to value 9
Set parameter TimeLimit to value 259200
Set parameter IterationLimit to value 760000000
No parameters matching 'relax_integrality' found
Gurobi Optimizer version 10.0.0 build v10.0.0rc2 (win64)

CPU model: Intel(R) Core(TM) i7-8700 CPU @ 3.20GHz, instruction set [SSE2|AVX|AVX2]
Thread count: 6 physical cores, 12 logical processors, using up to 9 threads

Optimize a model with 31954 rows, 21507 columns and 79368 nonzeros
Model fingerprint: 0x4a47e613
Coefficient statistics:
  Matrix range     [1e-03, 1e+03]
  Objective range  [1e+00, 1e+00]
  Bounds range     [3e-05, 3e+00]
  RHS range        [3e-05, 2e+01]
Presolve removed 26914 rows and 12449 columns
Presolve time: 0.04s
Presolved: 5040 rows, 9231 columns, 22743 nonzeros

Ordering time: 0.00s

Barrier statistics:
 AA' NZ     : 1.324e+04
 Factor NZ  : 4.937e+04 (roughly 5 MB of memory)
 Factor Ops : 7.193e+05 (less than 1 second per iteration)
 Threads    : 1

                  Objective                Residual
Iter       Primal          Dual         Primal    Dual     Compl     Time
   0   2.55389317e+06 -1.06628627e+08  1.67e+01 2.85e+03  6.47e+04     0s
   1   1.60702951e+05 -5.98982815e+07  1.06e+00 2.91e-11  6.84e+03     0s
   2   5.27528138e+04 -1.71977627e+07  3.22e-01 7.28e-11  1.53e+03     0s
   3   2.14084477e+04 -4.32475988e+06  1.82e-02 2.55e-11  2.80e+02     0s
   4   1.63550726e+04 -4.73497321e+05  2.15e-04 2.18e-11  3.03e+01     0s
   5   7.89864266e+03 -1.25268529e+05  1.37e-06 1.64e-11  8.24e+00     0s
   6   3.55543444e+03 -3.18278849e+04  5.81e-09 4.43e-12  2.19e+00     0s
   7   9.69751545e+02 -4.57709369e+03  2.33e-11 5.34e-12  3.43e-01     0s
   8   2.56199254e+02 -1.33468828e+03  2.01e-12 5.13e-12  9.85e-02     0s
   9   1.43196719e+02 -3.27150609e+02  1.38e-12 1.93e-11  2.91e-02     0s
  10   1.10926027e+02 -1.05851196e+02  7.92e-13 4.01e-12  1.34e-02     0s
  11   8.93697198e+01 -2.29277876e+00  1.05e-12 4.26e-12  5.67e-03     0s
  12   7.92066955e+01  3.44328170e+01  2.61e-12 4.38e-12  2.77e-03     0s
  13   7.00328617e+01  5.79537533e+01  2.84e-12 5.83e-12  7.48e-04     0s
  14   6.65811205e+01  6.43894715e+01  2.97e-12 9.41e-12  1.36e-04     0s
  15   6.61320620e+01  6.54469755e+01  3.00e-11 1.06e-11  4.24e-05     0s
  16   6.59821834e+01  6.57402245e+01  2.02e-11 7.95e-12  1.50e-05     0s
  17   6.59300986e+01  6.58401987e+01  1.96e-11 4.79e-12  5.56e-06     0s
  18   6.59089015e+01  6.58997295e+01  3.43e-11 3.74e-12  5.68e-07     0s
  19   6.59066535e+01  6.59063802e+01  4.99e-11 6.00e-12  1.69e-08     0s
  20   6.59065662e+01  6.59065659e+01  4.15e-11 6.91e-12  1.69e-11     0s
  21   6.59065661e+01  6.59065661e+01  1.70e-11 9.39e-12  1.69e-14     0s

Barrier solved model in 21 iterations and 0.11 seconds (0.11 work units)
Optimal objective 6.59065661e+01

Crossover log...

     996 DPushes remaining with DInf 0.0000000e+00                 0s
       0 DPushes remaining with DInf 0.0000000e+00                 0s

     320 PPushes remaining with PInf 0.0000000e+00                 0s
       0 PPushes remaining with PInf 0.0000000e+00                 0s

  Push phase complete: Pinf 0.0000000e+00, Dinf 4.5381080e-13      0s

Iteration    Objective       Primal Inf.    Dual Inf.      Time
     328    6.5906566e+01   0.000000e+00   0.000000e+00      0s

Use crossover to convert LP symmetric solution to basic solution...
Crossover log...

       0 DPushes remaining with DInf 0.0000000e+00                 0s

     194 PPushes remaining with PInf 0.0000000e+00                 0s
       0 PPushes remaining with PInf 0.0000000e+00                 0s

  Push phase complete: Pinf 0.0000000e+00, Dinf 5.2098378e-13      0s

Iteration    Objective       Primal Inf.    Dual Inf.      Time
     543    6.5906566e+01   0.000000e+00   0.000000e+00      0s

Solved in 543 iterations and 0.17 seconds (0.13 work units)
Optimal objective  6.590656607e+01

Gurobi 9.5.0 (linux64) logging started Sat Dec 16 21:10:53 2023

Set parameter LogFile to value "/lustre1/scratch/348/vsc34888/JointResearch/05.Models/06.Benchmarking/L.Cont_Investments_per_hour/RTS24_mod1_ByStages_nc90/openStarNet_RTS24_mod1_ByStages_nc90.log"
Set parameter Method to value 2
Set parameter MIPFocus to value 1
Set parameter Presolve to value 2
Set parameter RINS to value 100
Set parameter MIPGap to value 0.01
Set parameter Threads to value 36
Set parameter TimeLimit to value 259200
Set parameter IterationLimit to value 760000000
Gurobi Optimizer version 9.5.0 build v9.5.0rc5 (linux64)
Thread count: 36 physical cores, 36 logical processors, using up to 36 threads
Optimize a model with 31953 rows, 21528 columns and 86948 nonzeros
Model fingerprint: 0xda92186b
Variable types: 21507 continuous, 21 integer (21 binary)
Coefficient statistics:
  Matrix range     [1e-03, 1e+03]
  Objective range  [1e+00, 1e+00]
  Bounds range     [3e-05, 3e+00]
  RHS range        [3e-05, 3e+00]
Presolve removed 19018 rows and 10887 columns
Presolve time: 0.11s
Presolved: 12935 rows, 10641 columns, 46673 nonzeros
Variable types: 10620 continuous, 21 integer (21 binary)
Found heuristic solution: objective 96.3912509
Root relaxation presolve removed 1 rows and 1 columns
Root relaxation presolved: 12934 rows, 10640 columns, 46671 nonzeros

Root barrier log...

Ordering time: 0.00s

Barrier statistics:
 Dense cols : 21
 AA' NZ     : 8.671e+04
 Factor NZ  : 2.487e+05 (roughly 12 MB of memory)
 Factor Ops : 5.103e+06 (less than 1 second per iteration)
 Threads    : 36

                  Objective                Residual
Iter       Primal          Dual         Primal    Dual     Compl     Time
   0   6.59507660e+05 -2.46863857e+08  5.35e+00 7.87e+02  2.32e+04     0s
   1   9.20057296e+04 -6.42631079e+07  6.97e-01 8.44e-09  3.22e+03     0s
   2   3.23082751e+04 -9.60914952e+06  1.74e-01 4.53e-09  4.16e+02     0s
   3   1.59982894e+04 -9.82972009e+05  4.91e-03 3.11e-10  3.37e+01     0s
   4   9.56869081e+03 -9.23504446e+04  8.15e-13 2.95e-11  3.38e+00     0s
   5   3.23243100e+03 -2.56139605e+04  4.91e-13 7.71e-12  9.57e-01     0s
   6   1.03352971e+03 -6.33417031e+03  2.46e-13 1.82e-12  2.45e-01     0s
   7   3.86413939e+02 -1.90831194e+03  1.06e-13 1.82e-12  7.62e-02     0s
   8   1.96519331e+02 -6.19933680e+02  1.67e-13 9.09e-13  2.71e-02     0s
   9   1.46158030e+02 -3.18907103e+02  1.42e-13 9.09e-13  1.54e-02     0s
  10   1.05206253e+02 -8.41076546e+01  9.84e-14 1.82e-12  6.28e-03     0s
  11   6.74068718e+01  1.74307235e+01  1.47e-13 9.09e-13  1.66e-03     0s
  12   5.55398777e+01  3.40483420e+01  1.06e-12 1.82e-12  7.13e-04     0s
  13   5.18428160e+01  3.79559971e+01  8.98e-13 3.64e-12  4.61e-04     0s
  14   5.04023831e+01  4.25277780e+01  2.53e-12 3.64e-12  2.61e-04     0s
  15   4.92821128e+01  4.45466772e+01  4.43e-12 1.82e-12  1.57e-04     0s
  16   4.88097328e+01  4.50005620e+01  6.69e-12 3.64e-12  1.26e-04     0s
  17   4.81755387e+01  4.58115897e+01  1.21e-11 9.09e-13  7.85e-05     0s
  18   4.77698077e+01  4.67553062e+01  6.19e-12 3.64e-12  3.37e-05     0s
  19   4.76038518e+01  4.71148989e+01  9.85e-12 3.64e-12  1.62e-05     0s
  20   4.75635055e+01  4.72200876e+01  5.43e-12 3.64e-12  1.14e-05     0s
  21   4.75368870e+01  4.73184374e+01  3.30e-11 1.82e-12  7.25e-06     0s
  22   4.75185751e+01  4.73840127e+01  2.02e-11 1.82e-12  4.47e-06     0s
  23   4.75080382e+01  4.74443761e+01  2.09e-11 3.64e-12  2.11e-06     0s
  24   4.74952826e+01  4.74766829e+01  3.50e-11 3.64e-12  6.17e-07     0s
  25   4.74919945e+01  4.74897638e+01  1.80e-10 3.64e-12  7.40e-08     0s
  26   4.74914743e+01  4.74908932e+01  5.42e-11 1.82e-12  1.93e-08     0s
  27   4.74912903e+01  4.74910404e+01  1.41e-10 3.64e-12  8.29e-09     0s
  28   4.74912744e+01  4.74911319e+01  1.28e-10 9.09e-13  4.73e-09     0s
  29   4.74912447e+01  4.74912311e+01  9.24e-11 3.64e-12  4.51e-10     0s
  30   4.74912441e+01  4.74912441e+01  5.67e-10 3.64e-12  5.93e-13     0s

Barrier solved model in 30 iterations and 0.48 seconds (0.42 work units)
Optimal objective 4.74912441e+01


Root relaxation: objective 4.749124e+01, 1578 iterations, 0.32 seconds (0.26 work units)

    Nodes    |    Current Node    |     Objective Bounds      |     Work
 Expl Unexpl |  Obj  Depth IntInf | Incumbent    BestBd   Gap | It/Node Time

     0     0   47.49124    0   17   96.39125   47.49124  50.7%     -    0s
     0     0   48.39248    0   13   96.39125   48.39248  49.8%     -    1s
H    0     0                      92.6624669   48.39248  47.8%     -    1s
H    0     0                      86.0821808   48.40760  43.8%     -    1s
     0     0   48.42626    0   12   86.08218   48.42626  43.7%     -    1s
H    0     0                      82.1330867   48.71260  40.7%     -    1s
     0     0   48.71260    0   12   82.13309   48.71260  40.7%     -    1s
     0     0   48.81750    0   16   82.13309   48.81750  40.6%     -    2s
     0     0   48.82664    0   14   82.13309   48.82664  40.6%     -    2s
     0     0   48.82799    0   15   82.13309   48.82799  40.6%     -    2s
     0     0   48.82933    0   14   82.13309   48.82933  40.5%     -    2s
     0     0   48.82992    0   14   82.13309   48.82992  40.5%     -    2s
     0     0   48.89430    0   11   82.13309   48.89430  40.5%     -    2s
     0     0   48.90684    0   11   82.13309   48.90684  40.5%     -    2s
     0     0   48.93446    0   12   82.13309   48.93446  40.4%     -    2s
     0     0   48.94317    0   12   82.13309   48.94317  40.4%     -    3s
H    0     0                      79.3001071   48.94441  38.3%     -    3s
     0     0   48.94441    0   12   79.30011   48.94441  38.3%     -    3s
H    0     0                      74.8878395   48.94441  34.6%     -    3s
     0     0   48.95163    0   12   74.88784   48.95163  34.6%     -    3s
     0     0   48.95676    0   12   74.88784   48.95676  34.6%     -    3s
     0     0   48.95676    0   11   74.88784   48.95676  34.6%     -    3s
H    0     0                      70.6438307   48.95676  30.7%     -    4s
H    0     0                      66.0384540   48.95676  25.9%     -   10s
     0     2   48.95676    0   11   66.03845   48.95676  25.9%     -   11s
    99   130   54.26812    7   13   66.03845   52.16512  21.0%   877   19s
H  110   130                      65.9688589   52.16512  20.9%   857   19s
H  120   130                      65.9065661   52.16512  20.8%   836   19s
   135   156   57.05066    8   13   65.90657   52.16512  20.8%   796   27s
   265   208     cutoff    9        65.90657   52.16512  20.8%   630   33s
   532   246   55.38717    7   13   65.90657   52.46688  20.4%   517   35s
  1191   349   55.53319    8   13   65.90657   53.00957  19.6%   410   42s
  1947   373     cutoff    8        65.90657   57.55189  12.7%   364   45s

Cutting planes:
  Implied bound: 35
  MIR: 483
  Relax-and-lift: 51

Explored 3476 nodes (999346 simplex iterations) in 48.52 seconds (81.54 work units)
Thread count was 36 (of 36 available processors)

Solution count 10: 65.9066 65.9689 66.0385 ... 96.3913

Optimal solution found (tolerance 1.00e-02)
Best objective 6.590656607060e+01, best bound 6.590656607060e+01, gap 0.0000%

Gurobi 9.5.0 (linux64) logging started Sat Dec 16 21:11:46 2023

Set parameter LogFile to value "/lustre1/scratch/348/vsc34888/JointResearch/05.Models/06.Benchmarking/L.Cont_Investments_per_hour/RTS24_mod1_ByStages_nc90/openStarNet_RTS24_mod1_ByStages_nc90.log"
Set parameter Method to value 2
Set parameter MIPFocus to value 1
Set parameter Presolve to value 2
Set parameter RINS to value 100
Set parameter MIPGap to value 0.01
Set parameter Threads to value 36
Set parameter TimeLimit to value 259200
Set parameter IterationLimit to value 760000000
No parameters matching 'relax_integrality' found
Gurobi Optimizer version 9.5.0 build v9.5.0rc5 (linux64)
Thread count: 36 physical cores, 36 logical processors, using up to 36 threads
Optimize a model with 31953 rows, 21507 columns and 79367 nonzeros
Model fingerprint: 0x5b8286f4
Coefficient statistics:
  Matrix range     [1e-03, 1e+03]
  Objective range  [1e+00, 1e+00]
  Bounds range     [3e-05, 3e+00]
  RHS range        [3e-05, 2e+01]
Presolve removed 26385 rows and 11741 columns
Presolve time: 0.04s
Presolved: 5568 rows, 9856 columns, 24592 nonzeros

Ordering time: 0.00s

Barrier statistics:
 AA' NZ     : 1.250e+04
 Factor NZ  : 4.405e+04 (roughly 5 MB of memory)
 Factor Ops : 5.808e+05 (less than 1 second per iteration)
 Threads    : 1

                  Objective                Residual
Iter       Primal          Dual         Primal    Dual     Compl     Time
   0   2.00887907e+06 -7.75616042e+07  1.07e+01 2.87e+03  5.94e+04     0s
   1   1.36862344e+05 -5.75816532e+07  6.99e-01 3.96e-11  6.64e+03     0s
   2   5.29626136e+04 -2.10558988e+07  2.18e-01 7.27e-11  1.84e+03     0s
   3   2.46022003e+04 -5.01064581e+06  3.09e-02 3.64e-11  3.48e+02     0s
   4   1.79017364e+04 -6.96106249e+05  2.14e-03 3.14e-11  4.55e+01     0s
   5   1.05895381e+04 -1.19188195e+05  2.66e-06 8.54e-11  8.18e+00     0s
   6   4.48264245e+03 -3.97710416e+04  8.64e-08 3.39e-11  2.79e+00     0s
   7   1.32991322e+03 -9.76046700e+03  5.49e-10 1.26e-11  6.99e-01     0s
   8   3.66993916e+02 -2.10918226e+03  3.46e-12 6.59e-12  1.56e-01     0s
   9   1.84099477e+02 -7.49836529e+02  1.29e-12 3.64e-12  5.88e-02     0s
  10   1.47471765e+02 -4.57100406e+02  8.40e-13 3.64e-12  3.81e-02     0s
  11   1.16057165e+02 -1.80653806e+02  3.88e-13 3.64e-12  1.87e-02     0s
  12   9.48480288e+01 -2.82303543e+01  3.19e-13 7.28e-12  7.75e-03     0s
  13   7.93112661e+01  2.53168892e+01  2.44e-12 7.28e-12  3.40e-03     0s
  14   6.93602350e+01  5.86645477e+01  8.80e-13 1.82e-12  6.74e-04     0s
  15   6.69621355e+01  6.37604166e+01  4.14e-12 7.28e-12  2.02e-04     0s
  16   6.63354838e+01  6.51916224e+01  1.30e-11 7.28e-12  7.21e-05     0s
  17   6.60202545e+01  6.56201602e+01  1.25e-11 3.64e-12  2.52e-05     0s
  18   6.59484160e+01  6.58297386e+01  1.04e-11 7.28e-12  7.48e-06     0s
  19   6.59120435e+01  6.58901574e+01  2.34e-11 7.28e-12  1.38e-06     0s
  20   6.59067663e+01  6.59057425e+01  4.50e-11 3.64e-12  6.45e-08     0s
  21   6.59065674e+01  6.59065634e+01  6.65e-11 7.28e-12  2.52e-10     0s
  22   6.59065661e+01  6.59065661e+01  7.81e-11 1.46e-11  2.72e-16     0s

Barrier solved model in 22 iterations and 0.11 seconds (0.11 work units)
Optimal objective 6.59065661e+01

Crossover log...

     993 DPushes remaining with DInf 0.0000000e+00                 0s
       0 DPushes remaining with DInf 0.0000000e+00                 0s

     320 PPushes remaining with PInf 0.0000000e+00                 0s
       0 PPushes remaining with PInf 0.0000000e+00                 0s

  Push phase complete: Pinf 0.0000000e+00, Dinf 4.1028723e-13      0s

Iteration    Objective       Primal Inf.    Dual Inf.      Time
     325    6.5906566e+01   0.000000e+00   0.000000e+00      0s

Use crossover to convert LP symmetric solution to basic solution...
Crossover log...

     164 PPushes remaining with PInf 0.0000000e+00                 0s
       0 PPushes remaining with PInf 0.0000000e+00                 0s

  Push phase complete: Pinf 0.0000000e+00, Dinf 6.6152694e-13      0s

Iteration    Objective       Primal Inf.    Dual Inf.      Time
     492    6.5906566e+01   0.000000e+00   0.000000e+00      0s

Solved in 492 iterations and 0.15 seconds (0.13 work units)
Optimal objective  6.590656607e+01
